c User generated cnf file
p cnf 10 37
8 7 -8 0 
1 3 -8 0 
7 -2 4 0 
9 10 -9 0 
8 6 -1 0 
8 10 -1 0 
7 1 -9 0 
7 6 -3 0 
10 9 -5 0 
8 7 -8 0 
6 -4 8 0 
10 -9 9 0 
1 9 -10 0 
4 -9 2 0 
9 -7 9 0 
7 -6 5 0 
7 2 -1 0 
5 -10 5 0 
10 9 -9 0 
5 9 -9 0 
4 -5 5 0 
4 -6 2 0 
9 -9 4 0 
1 3 -10 0 
4 -1 4 0 
1 4 -9 0 
6 10 -9 0 
9 -10 6 0 
8 -1 1 0 
4 -9 3 0 
9 8 -1 0 
6 5 -7 0 
1 -8 6 0 
8 6 -8 0 
4 10 -4 0 
10 9 -4 0 
4 -2 9 0 
